(set-option :produce-models true); benchmark generated from python API
(set-info :status unknown)
(declare-fun l_1_0_9 () Real)
(declare-fun l_1_0_8 () Real)
(declare-fun l_1_0_7 () Real)
(declare-fun l_1_0_6 () Real)
(declare-fun l_1_0_5 () Real)
(declare-fun l_1_0_4 () Real)
(declare-fun l_1_0_3 () Real)
(declare-fun l_1_0_2 () Real)
(declare-fun l_1_0_1 () Real)
(declare-fun _a_0_ () Real)
(declare-fun l_1_0_10 () Real)
(declare-fun _a_1_ () Real)
(declare-fun l_1_0_11 () Real)
(declare-fun l_1_1_16 () Real)
(declare-fun l_1_1_15 () Real)
(declare-fun l_1_1_8 () Real)
(declare-fun l_1_1_6 () Real)
(declare-fun l_1_1_2 () Real)
(declare-fun l_1_1_13 () Real)
(declare-fun l_1_1_1 () Real)
(declare-fun l_1_1_7 () Real)
(declare-fun l_1_1_9 () Real)
(declare-fun l_1_1_17 () Real)
(declare-fun l_1_1_12 () Real)
(declare-fun l_1_1_11 () Real)
(declare-fun l_1_1_10 () Real)
(declare-fun l_1_1_5 () Real)
(declare-fun l_1_1_4 () Real)
(declare-fun l_1_1_3 () Real)
(declare-fun l_1_1_14 () Real)
(declare-fun l_1_2_1 () Real)
(declare-fun l_1_2_2 () Real)
(declare-fun l_1_2_3 () Real)
(declare-fun l_1_2_4 () Real)
(declare-fun l_1_2_5 () Real)
(declare-fun l_1_2_6 () Real)
(declare-fun l_1_2_7 () Real)
(declare-fun l_1_2_8 () Real)
(declare-fun l_1_2_9 () Real)
(declare-fun l_1_2_10 () Real)
(declare-fun l_1_2_11 () Real)
(declare-fun l_1_2_12 () Real)
(declare-fun l_1_2_13 () Real)
(declare-fun l_1_2_14 () Real)
(declare-fun l_1_2_15 () Real)
(declare-fun l_1_2_17 () Real)
(assert
 (let ((?x21 (* l_1_0_9 l_1_0_9)))
 (let ((?x27 (- (- (- (- _a_0_ l_1_0_1) (* 1.0 l_1_0_2)) l_1_0_3) l_1_0_4)))
 (let ((?x22 (- (- (- ?x27 (* 1.0 l_1_0_5)) (* 1.0 l_1_0_6)) (* 1.0 l_1_0_7))))
 (= (- (- ?x22 l_1_0_8) ?x21) 0.0)))))
(assert
 (= (- _a_1_ (* (* 2.0 l_1_0_10) l_1_0_9)) 0.0))
(assert
 (let ((?x130 (* 2.0 l_1_0_6)))
 (let ((?x128 (+ (- (* (- l_1_0_10) l_1_0_10) (* l_1_0_11 l_1_0_11)) l_1_0_2)))
 (= (- (+ (+ (+ ?x128 l_1_0_5) ?x130) l_1_0_7) 1.0) 0.0))))
(assert
 (= (- l_1_0_6) 0.0))
(assert
 (>= l_1_0_1 0.0))
(assert
 (>= l_1_0_2 0.0))
(assert
 (>= l_1_0_3 0.0))
(assert
 (>= l_1_0_4 0.0))
(assert
 (>= l_1_0_5 0.0))
(assert
 (>= l_1_0_6 0.0))
(assert
 (>= l_1_0_7 0.0))
(assert
 (>= l_1_0_8 0.0))
(assert
 (>= l_1_0_9 0.0))
(assert
 (>= l_1_0_11 0.0))
(assert
 (let ((?x70 (* _a_1_ l_1_1_8)))
 (let ((?x94 (* _a_1_ l_1_1_13)))
 (let ((?x11 (* _a_1_ l_1_1_1)))
 (let ((?x98 (+ (- (- (* (* (* (- 2.0) _a_0_) _a_1_) l_1_1_7) ?x11) ?x94) (* (* 9.0 _a_1_) l_1_1_2))))
 (let ((?x33 (- (- (+ ?x98 (* (* 9.0 _a_1_) l_1_1_6)) ?x70) (* (* 2.0 l_1_1_15) l_1_1_16))))
 (= (+ ?x33 8.0) 0.0)))))))
(assert
 (let ((?x154 (* l_1_1_17 l_1_1_17)))
 (let ((?x153 (* l_1_1_16 l_1_1_16)))
 (let ((?x241 (+ (- (+ (- l_1_1_1 l_1_1_10) (* 18.0 l_1_1_11)) l_1_1_12) l_1_1_13)))
 (let ((?x75 (- (- (- (- ?x241 ?x153) ?x154) (* l_1_1_2 (+ _a_0_ 9.0))) (* l_1_1_6 (+ _a_0_ 9.0)))))
 (let ((?x224 (+ (- ?x75 (* l_1_1_7 (+ (* (- 2.0) _a_0_) (* _a_1_ _a_1_)))) l_1_1_8)))
 (= (- (- ?x224 l_1_1_9) 1.0) 0.0)))))))
(assert
 (let ((?x334 (* 9.0 l_1_1_9)))
 (let ((?x327 (* l_1_1_15 l_1_1_15)))
 (let ((?x324 (* 9.0 l_1_1_12)))
 (let ((?x322 (* 81.0 l_1_1_11)))
 (let ((?x319 (* 9.0 l_1_1_10)))
 (let ((?x317 (* _a_0_ l_1_1_8)))
 (let ((?x314 (+ (- (* (- _a_0_) l_1_1_1) (* _a_0_ l_1_1_13)) (* (* 9.0 _a_0_) l_1_1_2))))
 (let ((?x323 (- (+ (- (+ ?x314 (* (* 9.0 _a_0_) l_1_1_6)) ?x317) ?x319) ?x322)))
 (let ((?x331 (- (- (- (- (- (+ ?x323 ?x324) l_1_1_14) ?x327) l_1_1_3) l_1_1_4) l_1_1_5)))
 (= (- (+ (- ?x331 (* (* l_1_1_7 _a_0_) _a_0_)) ?x334) 15.0) 0.0)))))))))))
(assert
 (let ((?x387 (+ (- (* (- _a_1_) l_1_1_2) (* _a_1_ l_1_1_6)) (* (* 2.0 _a_1_) l_1_1_7))))
 (= ?x387 0.0)))
(assert
 (= (- (+ (+ (- l_1_1_11) l_1_1_2) l_1_1_6) l_1_1_7) 0.0))
(assert
 (>= l_1_1_1 0.0))
(assert
 (>= l_1_1_2 0.0))
(assert
 (>= l_1_1_3 0.0))
(assert
 (>= l_1_1_4 0.0))
(assert
 (>= l_1_1_5 0.0))
(assert
 (>= l_1_1_6 0.0))
(assert
 (>= l_1_1_7 0.0))
(assert
 (>= l_1_1_8 0.0))
(assert
 (>= l_1_1_9 0.0))
(assert
 (>= l_1_1_10 0.0))
(assert
 (>= l_1_1_11 0.0))
(assert
 (>= l_1_1_12 0.0))
(assert
 (>= l_1_1_13 0.0))
(assert
 (>= l_1_1_14 0.0))
(assert
 (>= l_1_1_15 0.0))
(assert
 (>= l_1_1_17 0.0))
(assert
 false)
(assert
 (>= l_1_2_1 0.0))
(assert
 (>= l_1_2_2 0.0))
(assert
 (>= l_1_2_3 0.0))
(assert
 (>= l_1_2_4 0.0))
(assert
 (>= l_1_2_5 0.0))
(assert
 (>= l_1_2_6 0.0))
(assert
 (>= l_1_2_7 0.0))
(assert
 (>= l_1_2_8 0.0))
(assert
 (>= l_1_2_9 0.0))
(assert
 (>= l_1_2_10 0.0))
(assert
 (>= l_1_2_11 0.0))
(assert
 (>= l_1_2_12 0.0))
(assert
 (>= l_1_2_13 0.0))
(assert
 (>= l_1_2_14 0.0))
(assert
 (>= l_1_2_15 0.0))
(assert
 (>= l_1_2_17 0.0))
(check-sat)
(get-model)